p td 60 180
0 3
0 53
0 32
0 46
0 29
0 12
0 36
1 2
1 59
1 10
1 23
1 24
1 19
2 17
2 28
2 41
3 4
3 5
3 6
3 16
3 43
4 45
4 36
4 57
4 58
4 10
5 6
5 7
5 54
5 21
6 8
6 56
6 32
6 31
7 10
7 27
7 8
7 49
7 20
8 27
8 15
8 10
9 11
9 31
9 22
9 13
9 18
9 19
9 33
10 17
10 27
11 12
11 52
11 26
11 39
11 45
11 36
12 16
12 25
12 35
12 49
13 37
13 34
13 42
14 16
14 17
14 24
14 41
14 22
14 26
15 18
15 52
15 45
16 54
16 49
16 47
17 47
17 45
17 59
18 20
18 53
18 47
18 23
19 26
19 27
19 29
19 58
20 23
20 40
20 47
21 22
21 35
21 50
22 43
22 46
22 34
23 51
23 52
23 48
24 27
24 29
24 37
24 53
25 28
25 30
25 33
26 41
26 30
26 49
27 33
27 38
27 52
27 31
28 30
28 57
28 38
29 30
29 32
29 42
29 49
29 43
29 46
30 31
30 33
30 51
31 52
31 55
31 59
31 51
32 34
32 35
32 44
33 35
33 45
34 35
34 57
34 52
35 36
35 37
35 39
35 53
36 37
36 40
37 38
37 44
37 48
38 41
38 50
38 58
39 48
39 41
40 41
40 51
40 50
40 42
41 42
41 44
41 51
42 45
42 57
44 45
44 57
45 46
45 57
46 48
47 49
48 49
48 56
50 51
50 55
50 57
51 53
52 55
52 56
53 57
53 55
54 56
54 57
56 58
58 59
